(set-logic ALL)
(declare-const n_VAR Int)
(assert (not (= n_VAR 0)))
(assert (not (= n_VAR 1)))
(assert (< 0 n_VAR))
(assert (< 1 n_VAR))
(assert (< 2 n_VAR))
(assert (< 3 n_VAR))
(assert (< 4 n_VAR))
(assert (< 5 n_VAR))
(assert (< 6 n_VAR))
(assert (< 7 n_VAR))
(assert (< 8 n_VAR))
(assert (< 9 n_VAR))
(assert (< 10 n_VAR))
(assert (< 11 n_VAR))
(assert (< 12 n_VAR))
(assert (< 13 n_VAR))
(assert (< 14 n_VAR))
(assert (< 15 n_VAR))
(assert (< 16 n_VAR))
(assert (< 17 n_VAR))
(assert (< 18 n_VAR))
(assert (< 19 n_VAR))
(assert (< 20 n_VAR))
(assert (< 21 n_VAR))
(assert (< 22 n_VAR))
(assert (< 23 n_VAR))
(assert (< 24 n_VAR))
(assert (< 25 n_VAR))
(assert (< 26 n_VAR))
(assert (< 27 n_VAR))
(assert (< 28 n_VAR))
(assert (< 29 n_VAR))
(assert (< 30 n_VAR))
(assert (< 31 n_VAR))
(assert (< 32 n_VAR))
(assert (< 33 n_VAR))
(assert (< 34 n_VAR))
(assert (< 35 n_VAR))
(assert (< 36 n_VAR))
(assert (< 37 n_VAR))
(assert (< 38 n_VAR))
(assert (< 39 n_VAR))
(assert (< 40 n_VAR))
(assert (< 41 n_VAR))
(assert (< 42 n_VAR))
(assert (< 43 n_VAR))
(assert (< 44 n_VAR))
(assert (< 45 n_VAR))
(assert (< 46 n_VAR))
(assert (< 47 n_VAR))
(assert (< 48 n_VAR))
(assert (< 49 n_VAR))
(assert (< 50 n_VAR))
(assert (< 51 n_VAR))
(assert (< 52 n_VAR))
(assert (< 53 n_VAR))
(assert (< 54 n_VAR))
(assert (< 55 n_VAR))
(assert (< 56 n_VAR))
(assert (< 57 n_VAR))
(assert (< 58 n_VAR))
(assert (< 59 n_VAR))
(assert (< 60 n_VAR))
(assert (< 61 n_VAR))
(assert (< 62 n_VAR))
(assert (< 63 n_VAR))
(assert (< 64 n_VAR))
(assert (< 65 n_VAR))
(assert (< 66 n_VAR))
(assert (< 67 n_VAR))
(assert (< 68 n_VAR))
(assert (< 69 n_VAR))
(assert (< 70 n_VAR))
(assert (< 71 n_VAR))
(assert (< 72 n_VAR))
(assert (< 73 n_VAR))
(assert (< 74 n_VAR))
(assert (< 75 n_VAR))
(assert (< 76 n_VAR))
(assert (< 77 n_VAR))
(assert (< 78 n_VAR))
(assert (< 79 n_VAR))
(assert (< 80 n_VAR))
(assert (< 81 n_VAR))
(assert (< 82 n_VAR))
(assert (< 83 n_VAR))
(assert (< 84 n_VAR))
(assert (< 85 n_VAR))
(check-sat)
(get-value (n_VAR))
